     Program PWSCF v.7.3 starts on 26Mar2024 at 17:45:14

     Waiting for input...
     Reading input from standard input
Warning: card &CELL ignored
Warning: card    CELL_DYNAMICS = 'BFGS' ignored
Warning: card    CELL_DOFREE = 'IBRAV' ignored
Warning: card    PRESS = 0.0001 ignored
Warning: card &END ignored

     Current dimensions of program PWSCF are:
     Max number of different atomic species (ntypx) = 10
     Max number of k-points (npk) =  40000
     Max angular momentum in pseudopotentials (lmaxx) =  4

     R & G space division:  proc/nbgrp/npool/nimage =       4
     Subspace diagonalization in iterative solution of the eigenvalue problem:
     a serial algorithm will be used

     Using Slab Decomposition

     bravais-lattice index     =            1
     lattice parameter (alat)  =       9.2145  a.u.
     unit-cell volume          =     782.3665 (a.u.)^3
     number of atoms/cell      =           14
     number of atomic types    =            3
     number of electrons       =        62.00
     number of Kohn-Sham states=           37
     kinetic-energy cutoff     =      80.0000  Ry
     charge density cutoff     =     320.0000  Ry
     scf convergence threshold =      1.0E-06
     mixing beta               =       0.7000
     number of iterations used =            8  plain     mixing
     Exchange-correlation= PBE
                           (   1   4   3   4   0   0   0)

     celldm(1)=   9.214464  celldm(2)=   0.000000  celldm(3)=   0.000000
     celldm(4)=   0.000000  celldm(5)=   0.000000  celldm(6)=   0.000000

     crystal axes: (cart. coord. in units of alat)
               a(1) = (   1.000000   0.000000   0.000000 )
               a(2) = (   0.000000   1.000000   0.000000 )
               a(3) = (   0.000000   0.000000   1.000000 )

     reciprocal axes: (cart. coord. in units 2 pi/alat)
               b(1) = (  1.000000  0.000000  0.000000 )
               b(2) = (  0.000000  1.000000  0.000000 )
               b(3) = (  0.000000  0.000000  1.000000 )

     PseudoPot. # 1 for Sr read from file:
     /home/cataldo/QE-pseudopotentials/Sr_ONCV_PBE_sr.upf
     MD5 check sum: 2bcdb3d100bfcbec86a37c93652a2d42
     Pseudo is Norm-conserving + core correction, Zval = 10.0
     Generated using ONCVPSP code by D. R. Hamann
     Using radial grid of 1834 points,  6 beta functions with:
                l(1) =   0
                l(2) =   0
                l(3) =   1
                l(4) =   1
                l(5) =   2
                l(6) =   2

     PseudoPot. # 2 for B  read from file:
     /home/cataldo/QE-pseudopotentials/B_ONCV_PBE_sr.upf
     MD5 check sum: 12e13f68e8dc593c0a1d43390bab284b
     Pseudo is Norm-conserving + core correction, Zval =  3.0
     Generated using ONCVPSP code by D. R. Hamann
     Using radial grid of 1534 points,  4 beta functions with:
                l(1) =   0
                l(2) =   0
                l(3) =   1
                l(4) =   1

     PseudoPot. # 3 for C  read from file:
     /home/cataldo/QE-pseudopotentials/C_ONCV_PBE_sr.upf
     MD5 check sum: be7deea5c8a9eeec940f0cd39a542f08
     Pseudo is Norm-conserving + core correction, Zval =  4.0
     Generated using ONCVPSP code by D. R. Hamann
     Using radial grid of 1248 points,  4 beta functions with:
                l(1) =   0
                l(2) =   0
                l(3) =   1
                l(4) =   1

     atomic species   valence    mass     pseudopotential
     Sr               10.00    87.62000     Sr( 1.00)
     B                 3.00    10.81100     B ( 1.00)
     C                 4.00    12.00100     C ( 1.00)

     48 Sym. Ops., with inversion, found (24 have fractional translation)

   Cartesian axes

     site n.     atom                  positions (alat units)
         1        Sr     tau(   1) = (   0.0000000   0.0000000   0.0000000  )
         2        Sr     tau(   2) = (   0.5000000   0.5000000   0.5000000  )
         3        B      tau(   3) = (   0.0000000   0.2500000   0.5000000  )
         4        B      tau(   4) = (   0.0000000   0.7500000   0.5000000  )
         5        B      tau(   5) = (   0.5000000   0.0000000   0.2500000  )
         6        B      tau(   6) = (   0.5000000   0.0000000   0.7500000  )
         7        B      tau(   7) = (   0.2500000   0.5000000   0.0000000  )
         8        B      tau(   8) = (   0.7500000   0.5000000   0.0000000  )
         9        C      tau(   9) = (   0.0000000   0.5000000   0.2500000  )
        10        C      tau(  10) = (   0.0000000   0.5000000   0.7500000  )
        11        C      tau(  11) = (   0.2500000   0.0000000   0.5000000  )
        12        C      tau(  12) = (   7.7500000   0.0000000   0.5000000  )
        13        C      tau(  13) = (   0.5000000   0.2500000   0.0000000  )
        14        C      tau(  14) = (   0.5000000   0.7500000   0.0000000  )

     number of k points=    60  Methfessel-Paxton smearing, width (Ry)=  0.0200
                       cart. coord. in units 2pi/alat
        k(    1) = (   0.0000000   0.0000000   0.0000000), wk =   0.0044643
        k(    2) = (   0.0000000   0.0000000   0.1428571), wk =   0.0089286
        k(    3) = (   0.0000000   0.0000000   0.2857143), wk =   0.0089286
        k(    4) = (   0.0000000   0.0000000   0.4285714), wk =   0.0089286
        k(    5) = (   0.0000000   0.1250000   0.0000000), wk =   0.0178571
        k(    6) = (   0.0000000   0.1250000   0.1428571), wk =   0.0357143
        k(    7) = (   0.0000000   0.1250000   0.2857143), wk =   0.0357143
        k(    8) = (   0.0000000   0.1250000   0.4285714), wk =   0.0357143
        k(    9) = (   0.0000000   0.2500000   0.0000000), wk =   0.0178571
        k(   10) = (   0.0000000   0.2500000   0.1428571), wk =   0.0357143
        k(   11) = (   0.0000000   0.2500000   0.2857143), wk =   0.0357143
        k(   12) = (   0.0000000   0.2500000   0.4285714), wk =   0.0357143
        k(   13) = (   0.0000000   0.3750000   0.0000000), wk =   0.0178571
        k(   14) = (   0.0000000   0.3750000   0.1428571), wk =   0.0357143
        k(   15) = (   0.0000000   0.3750000   0.2857143), wk =   0.0357143
        k(   16) = (   0.0000000   0.3750000   0.4285714), wk =   0.0357143
        k(   17) = (   0.0000000  -0.5000000   0.0000000), wk =   0.0089286
        k(   18) = (   0.0000000  -0.5000000   0.1428571), wk =   0.0178571
        k(   19) = (   0.0000000  -0.5000000   0.2857143), wk =   0.0178571
        k(   20) = (   0.0000000  -0.5000000   0.4285714), wk =   0.0178571
        k(   21) = (   0.1250000   0.1250000   0.0000000), wk =   0.0178571
        k(   22) = (   0.1250000   0.1250000   0.1428571), wk =   0.0357143
        k(   23) = (   0.1250000   0.1250000   0.2857143), wk =   0.0357143
        k(   24) = (   0.1250000   0.1250000   0.4285714), wk =   0.0357143
        k(   25) = (   0.1250000   0.2500000   0.0000000), wk =   0.0357143
        k(   26) = (   0.1250000   0.2500000   0.1428571), wk =   0.0714286
        k(   27) = (   0.1250000   0.2500000   0.2857143), wk =   0.0714286
        k(   28) = (   0.1250000   0.2500000   0.4285714), wk =   0.0714286
        k(   29) = (   0.1250000   0.3750000   0.0000000), wk =   0.0357143
        k(   30) = (   0.1250000   0.3750000   0.1428571), wk =   0.0714286
        k(   31) = (   0.1250000   0.3750000   0.2857143), wk =   0.0714286
        k(   32) = (   0.1250000   0.3750000   0.4285714), wk =   0.0714286
        k(   33) = (   0.1250000  -0.5000000   0.0000000), wk =   0.0178571
        k(   34) = (   0.1250000  -0.5000000   0.1428571), wk =   0.0357143
        k(   35) = (   0.1250000  -0.5000000   0.2857143), wk =   0.0357143
        k(   36) = (   0.1250000  -0.5000000   0.4285714), wk =   0.0357143
        k(   37) = (   0.2500000   0.2500000   0.0000000), wk =   0.0178571
        k(   38) = (   0.2500000   0.2500000   0.1428571), wk =   0.0357143
        k(   39) = (   0.2500000   0.2500000   0.2857143), wk =   0.0357143
        k(   40) = (   0.2500000   0.2500000   0.4285714), wk =   0.0357143
        k(   41) = (   0.2500000   0.3750000   0.0000000), wk =   0.0357143
        k(   42) = (   0.2500000   0.3750000   0.1428571), wk =   0.0714286
        k(   43) = (   0.2500000   0.3750000   0.2857143), wk =   0.0714286
        k(   44) = (   0.2500000   0.3750000   0.4285714), wk =   0.0714286
        k(   45) = (   0.2500000  -0.5000000   0.0000000), wk =   0.0178571
        k(   46) = (   0.2500000  -0.5000000   0.1428571), wk =   0.0357143
        k(   47) = (   0.2500000  -0.5000000   0.2857143), wk =   0.0357143
        k(   48) = (   0.2500000  -0.5000000   0.4285714), wk =   0.0357143
        k(   49) = (   0.3750000   0.3750000   0.0000000), wk =   0.0178571
        k(   50) = (   0.3750000   0.3750000   0.1428571), wk =   0.0357143
        k(   51) = (   0.3750000   0.3750000   0.2857143), wk =   0.0357143
        k(   52) = (   0.3750000   0.3750000   0.4285714), wk =   0.0357143
        k(   53) = (   0.3750000  -0.5000000   0.0000000), wk =   0.0178571
        k(   54) = (   0.3750000  -0.5000000   0.1428571), wk =   0.0357143
        k(   55) = (   0.3750000  -0.5000000   0.2857143), wk =   0.0357143
        k(   56) = (   0.3750000  -0.5000000   0.4285714), wk =   0.0357143
        k(   57) = (  -0.5000000  -0.5000000   0.0000000), wk =   0.0044643
        k(   58) = (  -0.5000000  -0.5000000   0.1428571), wk =   0.0089286
        k(   59) = (  -0.5000000  -0.5000000   0.2857143), wk =   0.0089286
        k(   60) = (  -0.5000000  -0.5000000   0.4285714), wk =   0.0089286

     Initial potential from superposition of free atoms

     starting charge      61.9816, renormalised to      62.0000
     Starting wfcs are   58 randomized atomic wfcs

     Self-consistent Calculation

     iteration #  1     ecut=    80.00 Ry     beta= 0.70
     Davidson diagonalization with overlap
     ethr =  1.00E-02,  avg # of iterations =  4.1

     total energy              =    -244.13337649 Ry
     estimated scf accuracy    <       0.84337008 Ry

[...]

     iteration #  4     ecut=    80.00 Ry     beta= 0.70
     Davidson diagonalization with overlap
     c_bands:  1 eigenvalues not converged
     c_bands:  1 eigenvalues not converged
     c_bands:  1 eigenvalues not converged
     c_bands:  1 eigenvalues not converged
     c_bands:  1 eigenvalues not converged
     c_bands:  1 eigenvalues not converged
     c_bands:  2 eigenvalues not converged
     c_bands:  1 eigenvalues not converged
     c_bands:  1 eigenvalues not converged
     c_bands:  1 eigenvalues not converged
     c_bands:  1 eigenvalues not converged
     c_bands:  1 eigenvalues not converged
     c_bands:  1 eigenvalues not converged
     c_bands:  2 eigenvalues not converged
     ethr =  6.24E-06,  avg # of iterations = 15.1

[...]

     total energy              =    -244.42238376 Ry
     estimated scf accuracy    <       0.00001701 Ry

     iteration #  9     ecut=    80.00 Ry     beta= 0.70
     Davidson diagonalization with overlap
     ethr =  2.74E-08,  avg # of iterations =  3.4

     End of self-consistent calculation

          k = 0.0000 0.0000 0.0000 (  9459 PWs)   bands (ev):

   -21.6261 -21.5741  -4.3817  -4.3817  -4.3817  -3.8876  -3.8876  -3.8876
    -3.3683  -1.1232  -1.1232   2.6942   2.6942   2.6942   3.2996   3.2996
     4.3709   5.6960   5.6960   5.6960   7.4477   7.4477   7.4477   9.5960
     9.5960   9.5960  10.1144  10.1144  10.1144  13.4387  13.4387  13.4387
    17.2703  17.2703  17.2704  18.8071  18.8071

[...]

          k = 0.3750-0.5000 0.4286 (  9480 PWs)   bands (ev):

[...]

          k =-0.5000-0.5000 0.0000 (  9476 PWs)   bands (ev):

[...]

          k =-0.5000-0.5000 0.4286 (  9472 PWs)   bands (ev):

   -21.5911 -21.5911  -4.7099  -4.7046  -4.5569  -4.5569  -4.4495  -4.4429
     0.0970   0.1623   0.1750   0.1750   0.3468   0.4191   5.3181   5.3181
     7.2562   7.6111   7.9691   7.9691   8.0915   8.3608   8.3812   8.5346
     8.5346   8.6940   9.1382   9.3448   9.3950   9.3950   9.4829   9.4829
    17.6044  17.6044  17.7736  17.7738  17.8080

     the Fermi energy is    12.1711 ev

!    total energy              =    -244.42238789 Ry
     estimated scf accuracy    <       0.00000011 Ry
     smearing contrib. (-TS)   =      -0.00014225 Ry
     internal energy E=F+TS    =    -244.42224564 Ry

     The total energy is F=E-TS. E is the sum of the following terms:
     one-electron contribution =      43.54417654 Ry
     hartree contribution      =      18.87212091 Ry
     xc contribution           =     -74.35095001 Ry
     ewald contribution        =    -232.48759309 Ry

     convergence has been achieved in   9 iterations

     Forces acting on atoms (cartesian axes, Ry/au):

     atom    1 type  1   force =     0.00000000    0.00000000    0.00000000
     atom    2 type  1   force =     0.00000000    0.00000000    0.00000000
     atom    3 type  2   force =     0.00000000    0.00000000    0.00000000
     atom    4 type  2   force =    -0.00000000   -0.00000000    0.00000000
     atom    5 type  2   force =     0.00000000    0.00000000    0.00000000
     atom    6 type  2   force =     0.00000000    0.00000000    0.00000000
     atom    7 type  2   force =    -0.00000000   -0.00000000    0.00000000
     atom    8 type  2   force =     0.00000000    0.00000000    0.00000000
     atom    9 type  3   force =     0.00000000    0.00000000    0.00000000
     atom   10 type  3   force =     0.00000000    0.00000000    0.00000000
     atom   11 type  3   force =     0.00000000    0.00000000    0.00000000
     atom   12 type  3   force =    -0.00000000    0.00000000    0.00000000
     atom   13 type  3   force =    -0.00000000    0.00000000    0.00000000
     atom   14 type  3   force =     0.00000000   -0.00000000   -0.00000000

     Total force =     0.000000     Total SCF correction =     0.000000

     Computing stress (Cartesian axis) and pressure

          total   stress  (Ry/bohr**3)                   (kbar)     P=        2.54
   0.00001728   0.00000000   0.00000000            2.54        0.00        0.00
   0.00000000   0.00001728   0.00000000            0.00        2.54        0.00
   0.00000000   0.00000000   0.00001728            0.00        0.00        2.54

     Writing all to output data dir ./output/SrB3C3.save/ :
     XML data file, charge density, pseudopotentials, collected wavefunctions

     General routines

     Parallel routines

   This run was terminated on:  17:49:50  26Mar2024

   JOB DONE.